c FILE: i080-312

c SOURCE: From steinlib

c DESCRIPTION: Steinlib instance with 80 nodes and 350 edges.

p edge 80 350
e 1 5
e 1 6
e 1 7
e 1 11
e 1 21
e 1 24
e 1 25
e 1 28
e 1 29
e 1 39
e 1 41
e 1 46
e 1 49
e 1 67
e 1 76
e 1 79
e 2 19
e 2 41
e 2 42
e 2 47
e 2 51
e 2 65
e 2 76
e 3 4
e 3 9
e 3 25
e 3 30
e 3 32
e 3 34
e 3 49
e 3 53
e 3 56
e 3 61
e 3 62
e 3 65
e 4 8
e 4 10
e 4 12
e 4 16
e 4 27
e 4 28
e 4 43
e 4 44
e 4 62
e 4 68
e 5 9
e 5 21
e 5 43
e 5 67
e 5 75
e 5 80
e 6 36
e 6 39
e 6 42
e 6 62
e 6 68
e 6 70
e 6 71
e 6 73
e 7 19
e 7 28
e 7 32
e 7 39
e 7 46
e 7 53
e 7 56
e 7 61
e 7 63
e 7 75
e 8 9
e 8 30
e 8 45
e 8 47
e 8 53
e 8 62
e 9 30
e 9 32
e 9 49
e 9 58
e 10 15
e 10 32
e 10 55
e 10 58
e 10 61
e 10 67
e 10 76
e 10 78
e 11 20
e 11 33
e 11 43
e 11 45
e 11 53
e 11 56
e 12 17
e 12 21
e 12 26
e 12 45
e 12 47
e 12 54
e 13 29
e 13 31
e 13 38
e 13 48
e 13 50
e 13 52
e 13 59
e 13 67
e 13 72
e 13 75
e 14 21
e 14 32
e 14 35
e 14 38
e 14 40
e 14 42
e 14 69
e 14 72
e 14 73
e 15 27
e 15 32
e 15 34
e 15 37
e 15 42
e 15 47
e 15 49
e 15 73
e 16 22
e 16 29
e 16 31
e 16 37
e 16 42
e 16 45
e 16 52
e 16 59
e 16 68
e 17 20
e 17 30
e 17 34
e 17 35
e 17 38
e 17 41
e 17 54
e 18 20
e 18 32
e 18 34
e 18 36
e 18 40
e 18 50
e 18 51
e 18 52
e 18 55
e 18 62
e 18 78
e 19 34
e 19 50
e 19 69
e 19 74
e 19 77
e 20 24
e 20 32
e 20 37
e 20 44
e 20 48
e 20 50
e 20 51
e 20 52
e 20 56
e 20 62
e 20 77
e 20 78
e 20 79
e 21 24
e 21 25
e 21 29
e 21 37
e 21 38
e 21 39
e 21 44
e 21 65
e 21 76
e 22 35
e 22 70
e 23 34
e 23 37
e 23 45
e 23 51
e 23 58
e 23 60
e 23 61
e 23 65
e 23 67
e 23 69
e 23 70
e 24 42
e 24 53
e 24 57
e 25 40
e 25 52
e 25 57
e 25 69
e 25 77
e 26 27
e 26 53
e 26 56
e 26 59
e 26 64
e 26 68
e 26 75
e 26 78
e 26 80
e 27 28
e 27 42
e 27 69
e 27 79
e 28 37
e 28 42
e 28 55
e 28 62
e 28 63
e 28 69
e 28 77
e 28 79
e 29 44
e 29 70
e 29 74
e 30 38
e 30 39
e 30 60
e 30 66
e 30 71
e 30 74
e 30 76
e 31 37
e 31 51
e 31 65
e 31 79
e 31 80
e 32 56
e 32 76
e 33 38
e 33 40
e 33 43
e 33 48
e 33 71
e 33 75
e 33 77
e 35 48
e 35 52
e 35 54
e 35 56
e 35 67
e 35 78
e 35 79
e 36 45
e 36 69
e 36 72
e 37 38
e 37 43
e 37 57
e 37 58
e 37 68
e 37 69
e 38 45
e 39 42
e 39 43
e 39 44
e 39 58
e 39 63
e 39 74
e 40 45
e 40 47
e 40 53
e 40 56
e 40 58
e 40 59
e 40 68
e 40 79
e 41 78
e 42 56
e 42 58
e 42 62
e 42 68
e 43 45
e 43 48
e 43 60
e 43 65
e 43 76
e 44 55
e 44 75
e 45 58
e 45 64
e 45 66
e 45 75
e 46 54
e 46 77
e 47 49
e 47 55
e 47 68
e 47 78
e 48 52
e 49 53
e 49 71
e 50 51
e 50 64
e 50 65
e 51 52
e 51 59
e 51 75
e 52 59
e 52 63
e 52 78
e 52 79
e 53 66
e 53 80
e 54 64
e 54 69
e 54 79
e 55 59
e 55 70
e 55 73
e 55 78
e 56 62
e 56 65
e 56 67
e 56 68
e 58 64
e 59 63
e 60 61
e 60 65
e 60 66
e 60 74
e 61 78
e 61 80
e 62 71
e 63 67
e 65 78
e 66 73
e 67 76
e 68 78
e 69 75
e 69 78
e 70 72
e 70 79
e 72 76
e 72 80
e 73 79
e 75 77
e 75 79
e 76 77
e 76 80
